50
    35     3    52    46    51    27    18    57    79    68    23    68    89    40    83   100    66    98    77    68    12    36    52    73    42    92    19     9    89    41    57    62     1     2     7     6    41    32    80     7    88    29    48    21    37    32    53    95    97    22
     5    10     1     7     6     5     7     4     3     4     2     6    10     8     3     8     6     4     7     2     4     7     1     7     2     6     1     9     4     3     5     3     6     1     8     7    10     5     5     1     4     3     3     9     9     5     6     4     1     3
  2644  2524  1856  1142  2555   514   704   408  1651  2050  1809  1892  2011  1465  2280  1566  1864  1289   424  1742  2351   936   686  1572   914  1180   359   927   485  2562  1810   623   453  2582  1618  1430   989  1394   376  1877  1300  1422  1545  2118  1530   913  1816  1734  1010   840
